(declare-fun var0 () String)
(assert (RegexIn var0 (RegexConcat (RegexStar (RegexStar (Str2Reg "ggg"))) (RegexConcat (RegexUnion (RegexPlus (Str2Reg "e")) (RegexStar (Str2Reg "fff"))) (RegexConcat (RegexUnion (RegexPlus (Str2Reg "c")) (RegexPlus (Str2Reg "d"))) (RegexConcat (RegexPlus (RegexUnion (Str2Reg "aaa") (Str2Reg "bbb"))) (RegexConcat (RegexStar (RegexUnion (Str2Reg "888") (Str2Reg "9"))) (RegexConcat (RegexUnion (RegexPlus (Str2Reg "66")) (RegexStar (Str2Reg "7"))) (RegexConcat (RegexPlus (RegexStar (Str2Reg "55"))) (RegexConcat (RegexPlus (RegexUnion (Str2Reg "333") (Str2Reg "44"))) (RegexConcat (RegexPlus (RegexStar (Str2Reg "2"))) (RegexPlus (RegexUnion (Str2Reg "0") (Str2Reg "11"))))))))))))))
(assert (RegexIn var0 (RegexConcat (RegexUnion (RegexPlus (Str2Reg "ee")) (RegexUnion (Str2Reg "f") (Str2Reg "g"))) (RegexConcat (RegexPlus (RegexStar (Str2Reg "ddd"))) (RegexConcat (RegexStar (RegexPlus (Str2Reg "c"))) (RegexConcat (RegexStar (RegexStar (Str2Reg "bb"))) (RegexConcat (RegexUnion (RegexPlus (Str2Reg "999")) (RegexStar (Str2Reg "a"))) (RegexConcat (RegexStar (RegexUnion (Str2Reg "7") (Str2Reg "8"))) (RegexConcat (RegexUnion (RegexUnion (Str2Reg "44") (Str2Reg "555")) (RegexStar (Str2Reg "666"))) (RegexConcat (RegexStar (RegexStar (Str2Reg "333"))) (RegexConcat (RegexStar (RegexUnion (Str2Reg "111") (Str2Reg "2"))) (RegexStar (RegexPlus (Str2Reg "00"))))))))))))))
(assert (RegexIn var0 (RegexConcat (RegexStar (RegexStar (Str2Reg "dd"))) (RegexConcat (RegexUnion (RegexStar (Str2Reg "aaa")) (RegexUnion (Str2Reg "bb") (Str2Reg "cc"))) (RegexConcat (RegexPlus (RegexStar (Str2Reg "99"))) (RegexConcat (RegexStar (RegexPlus (Str2Reg "8"))) (RegexConcat (RegexStar (RegexStar (Str2Reg "777"))) (RegexConcat (RegexStar (RegexStar (Str2Reg "66"))) (RegexConcat (RegexPlus (RegexStar (Str2Reg "55"))) (RegexConcat (RegexPlus (RegexStar (Str2Reg "444"))) (RegexConcat (RegexUnion (RegexStar (Str2Reg "11")) (RegexUnion (Str2Reg "2") (Str2Reg "333"))) (RegexStar (RegexStar (Str2Reg "000"))))))))))))))
(assert (RegexIn var0 (RegexConcat (RegexStar (RegexStar (Str2Reg "g"))) (RegexConcat (RegexStar (RegexUnion (Str2Reg "e") (Str2Reg "f"))) (RegexConcat (RegexPlus (RegexUnion (Str2Reg "ccc") (Str2Reg "dd"))) (RegexConcat (RegexStar (RegexPlus (Str2Reg "b"))) (RegexConcat (RegexPlus (RegexStar (Str2Reg "a"))) (RegexConcat (RegexUnion (RegexUnion (Str2Reg "666") (Str2Reg "77")) (RegexUnion (Str2Reg "88") (Str2Reg "9"))) (RegexConcat (RegexStar (RegexPlus (Str2Reg "555"))) (RegexConcat (RegexPlus (RegexStar (Str2Reg "4"))) (RegexConcat (RegexPlus (RegexUnion (Str2Reg "2") (Str2Reg "333"))) (RegexUnion (RegexStar (Str2Reg "0")) (RegexStar (Str2Reg "111"))))))))))))))
(assert (RegexIn var0 (RegexConcat (RegexUnion (RegexPlus (Str2Reg "d")) (RegexPlus (Str2Reg "ee"))) (RegexConcat (RegexUnion (RegexPlus (Str2Reg "bbb")) (RegexStar (Str2Reg "c"))) (RegexConcat (RegexStar (RegexStar (Str2Reg "aa"))) (RegexConcat (RegexStar (RegexUnion (Str2Reg "8") (Str2Reg "99"))) (RegexConcat (RegexStar (RegexStar (Str2Reg "777"))) (RegexConcat (RegexStar (RegexPlus (Str2Reg "6"))) (RegexConcat (RegexPlus (RegexStar (Str2Reg "5"))) (RegexConcat (RegexUnion (RegexUnion (Str2Reg "22") (Str2Reg "33")) (RegexStar (Str2Reg "44"))) (RegexConcat (RegexStar (RegexPlus (Str2Reg "11"))) (RegexStar (RegexStar (Str2Reg "00"))))))))))))))
(assert (RegexIn var0 (RegexConcat (RegexPlus (RegexStar (Str2Reg "eee"))) (RegexConcat (RegexPlus (RegexPlus (Str2Reg "d"))) (RegexConcat (RegexStar (RegexPlus (Str2Reg "cc"))) (RegexConcat (RegexPlus (RegexPlus (Str2Reg "bb"))) (RegexConcat (RegexStar (RegexStar (Str2Reg "aa"))) (RegexConcat (RegexStar (RegexPlus (Str2Reg "9"))) (RegexConcat (RegexPlus (RegexStar (Str2Reg "8"))) (RegexConcat (RegexUnion (RegexUnion (Str2Reg "55") (Str2Reg "666")) (RegexPlus (Str2Reg "77"))) (RegexConcat (RegexUnion (RegexStar (Str2Reg "222")) (RegexUnion (Str2Reg "33") (Str2Reg "4"))) (RegexPlus (RegexUnion (Str2Reg "000") (Str2Reg "1"))))))))))))))
(assert (RegexIn var0 (RegexConcat (RegexStar (RegexStar (Str2Reg "g"))) (RegexConcat (RegexPlus (RegexPlus (Str2Reg "ff"))) (RegexConcat (RegexStar (RegexUnion (Str2Reg "dd") (Str2Reg "eee"))) (RegexConcat (RegexStar (RegexPlus (Str2Reg "cc"))) (RegexConcat (RegexUnion (RegexStar (Str2Reg "9")) (RegexUnion (Str2Reg "aa") (Str2Reg "bbb"))) (RegexConcat (RegexUnion (RegexUnion (Str2Reg "666") (Str2Reg "77")) (RegexStar (Str2Reg "8"))) (RegexConcat (RegexPlus (RegexUnion (Str2Reg "4") (Str2Reg "55"))) (RegexConcat (RegexPlus (RegexStar (Str2Reg "3"))) (RegexConcat (RegexPlus (RegexPlus (Str2Reg "22"))) (RegexPlus (RegexUnion (Str2Reg "00") (Str2Reg "1"))))))))))))))
(assert (RegexIn var0 (RegexConcat (RegexPlus (RegexStar (Str2Reg "ii"))) (RegexConcat (RegexUnion (RegexStar (Str2Reg "fff")) (RegexUnion (Str2Reg "ggg") (Str2Reg "hhh"))) (RegexConcat (RegexStar (RegexStar (Str2Reg "e"))) (RegexConcat (RegexUnion (RegexStar (Str2Reg "bbb")) (RegexUnion (Str2Reg "c") (Str2Reg "dd"))) (RegexConcat (RegexUnion (RegexUnion (Str2Reg "8") (Str2Reg "999")) (RegexStar (Str2Reg "aa"))) (RegexConcat (RegexUnion (RegexStar (Str2Reg "66")) (RegexPlus (Str2Reg "77"))) (RegexConcat (RegexPlus (RegexPlus (Str2Reg "55"))) (RegexConcat (RegexPlus (RegexUnion (Str2Reg "333") (Str2Reg "44"))) (RegexConcat (RegexStar (RegexStar (Str2Reg "2"))) (RegexPlus (RegexUnion (Str2Reg "00") (Str2Reg "1"))))))))))))))
(assert (RegexIn var0 (RegexConcat (RegexUnion (RegexStar (Str2Reg "ll")) (RegexStar (Str2Reg "mmm"))) (RegexConcat (RegexUnion (RegexUnion (Str2Reg "i") (Str2Reg "j")) (RegexPlus (Str2Reg "kk"))) (RegexConcat (RegexStar (RegexUnion (Str2Reg "g") (Str2Reg "h"))) (RegexConcat (RegexStar (RegexUnion (Str2Reg "ee") (Str2Reg "ff"))) (RegexConcat (RegexUnion (RegexStar (Str2Reg "bb")) (RegexUnion (Str2Reg "cc") (Str2Reg "dd"))) (RegexConcat (RegexUnion (RegexPlus (Str2Reg "888")) (RegexUnion (Str2Reg "9") (Str2Reg "aaa"))) (RegexConcat (RegexUnion (RegexUnion (Str2Reg "555") (Str2Reg "66")) (RegexStar (Str2Reg "777"))) (RegexConcat (RegexPlus (RegexUnion (Str2Reg "333") (Str2Reg "4"))) (RegexConcat (RegexStar (RegexUnion (Str2Reg "11") (Str2Reg "222"))) (RegexPlus (RegexStar (Str2Reg "0"))))))))))))))
(assert (RegexIn var0 (RegexConcat (RegexStar (RegexUnion (Str2Reg "mmm") (Str2Reg "nn"))) (RegexConcat (RegexUnion (RegexUnion (Str2Reg "jj") (Str2Reg "k")) (RegexStar (Str2Reg "ll"))) (RegexConcat (RegexUnion (RegexUnion (Str2Reg "ggg") (Str2Reg "hh")) (RegexStar (Str2Reg "ii"))) (RegexConcat (RegexUnion (RegexUnion (Str2Reg "dd") (Str2Reg "eee")) (RegexStar (Str2Reg "ff"))) (RegexConcat (RegexUnion (RegexPlus (Str2Reg "aa")) (RegexUnion (Str2Reg "bb") (Str2Reg "cc"))) (RegexConcat (RegexStar (RegexPlus (Str2Reg "999"))) (RegexConcat (RegexUnion (RegexPlus (Str2Reg "777")) (RegexPlus (Str2Reg "8"))) (RegexConcat (RegexUnion (RegexUnion (Str2Reg "33") (Str2Reg "44")) (RegexUnion (Str2Reg "5") (Str2Reg "6"))) (RegexConcat (RegexStar (RegexStar (Str2Reg "222"))) (RegexStar (RegexUnion (Str2Reg "000") (Str2Reg "11"))))))))))))))
(assert (RegexIn var0 (RegexConcat (RegexUnion (RegexUnion (Str2Reg "ggg") (Str2Reg "h")) (RegexPlus (Str2Reg "i"))) (RegexConcat (RegexUnion (RegexPlus (Str2Reg "dd")) (RegexUnion (Str2Reg "eee") (Str2Reg "f"))) (RegexConcat (RegexStar (RegexPlus (Str2Reg "c"))) (RegexConcat (RegexUnion (RegexPlus (Str2Reg "aaa")) (RegexStar (Str2Reg "b"))) (RegexConcat (RegexPlus (RegexPlus (Str2Reg "9"))) (RegexConcat (RegexStar (RegexUnion (Str2Reg "77") (Str2Reg "88"))) (RegexConcat (RegexPlus (RegexUnion (Str2Reg "555") (Str2Reg "666"))) (RegexConcat (RegexStar (RegexUnion (Str2Reg "333") (Str2Reg "4"))) (RegexConcat (RegexUnion (RegexStar (Str2Reg "11")) (RegexPlus (Str2Reg "22"))) (RegexPlus (RegexPlus (Str2Reg "00"))))))))))))))
(check-sat)